p cnf 100 100
-16 -35 0
-10 -86 0
58 12 0
-13 75 0
-11 38 0
-29 -90 0
-4 -13 0
38 11 0
-71 -80 0
99 86 0
-33 44 0
-72 -49 0
43 -3 0
-21 -88 0
91 -78 0
58 -91 0
-32 44 0
-58 -79 0
-12 23 0
42 59 0
78 -59 0
-19 28 0
-68 -41 0
-15 58 0
-68 -54 0
20 83 0
-81 -24 0
18 20 0
60 90 0
-11 -17 0
-16 34 0
-71 20 0
-77 -85 0
47 61 0
78 -69 0
-62 11 0
32 -89 0
33 -91 0
-17 88 0
46 68 0
98 40 0
95 63 0
67 77 0
-78 -88 0
95 69 0
36 -30 0
23 59 0
-4 93 0
-44 14 0
-66 7 0
70 72 0
-100 62 0
-87 -10 0
-95 29 0
-42 -59 0
-21 68 0
99 -3 0
33 -46 0
10 -81 0
-37 -32 0
-19 -51 0
42 -71 0
57 36 0
-7 47 0
76 -34 0
32 -87 0
-60 92 0
-36 -61 0
-23 34 0
19 2 0
68 14 0
-72 12 0
45 -80 0
-55 -39 0
-53 80 0
22 14 0
-80 47 0
99 -16 0
-60 -32 0
17 24 0
25 -24 0
63 -22 0
90 -2 0
53 -63 0
-2 86 0
-33 -84 0
-73 -81 0
-87 -80 0
-33 12 0
84 87 0
98 43 0
-12 29 0
-2 62 0
-95 78 0
78 -20 0
97 -47 0
-8 -82 0
30 -29 0
12 -18 0
-40 23 0
