p cnf 100 100
-20 24 0
96 -27 0
-97 -40 0
-76 12 0
79 43 0
-52 95 0
-1 38 0
-21 -42 0
55 49 0
11 -99 0
-48 -72 0
-98 -7 0
-63 98 0
72 83 0
-40 59 0
90 -35 0
44 62 0
67 -91 0
65 -91 0
100 17 0
-80 -59 0
-55 -83 0
100 -54 0
-42 -25 0
67 -75 0
-7 70 0
-55 -69 0
-72 81 0
5 -64 0
-50 14 0
94 -29 0
-87 -77 0
23 52 0
-37 17 0
26 -38 0
-45 -16 0
8 -67 0
29 -44 0
-92 -58 0
38 -71 0
21 -68 0
-92 -81 0
-80 -32 0
-54 -70 0
18 100 0
67 -5 0
-8 -50 0
-17 16 0
17 -1 0
-21 -39 0
-91 50 0
44 -93 0
-74 32 0
-83 24 0
34 -8 0
77 -60 0
92 -96 0
76 -96 0
61 97 0
-60 -90 0
8 -28 0
26 92 0
3 -15 0
-52 -38 0
60 -24 0
-45 -46 0
68 76 0
22 -20 0
54 30 0
53 -54 0
3 -56 0
-93 -50 0
2 -39 0
-69 -97 0
-29 -70 0
3 91 0
-14 -94 0
23 80 0
81 32 0
87 -60 0
-50 -29 0
69 19 0
45 -4 0
-5 39 0
89 -60 0
-51 -71 0
-14 87 0
-73 -16 0
46 61 0
57 -10 0
-33 56 0
-19 -35 0
46 33 0
-68 -27 0
-33 -3 0
56 36 0
-67 96 0
-2 44 0
-81 35 0
-32 -95 0
