p cnf 100 100
2 -21 0
63 18 0
77 -4 0
40 -55 0
24 -61 0
82 -34 0
-67 42 0
48 9 0
39 17 0
85 -36 0
-55 18 0
77 90 0
-1 -32 0
-11 -15 0
21 -60 0
-93 -32 0
-96 81 0
14 60 0
-9 36 0
-83 96 0
-79 -14 0
-36 31 0
16 72 0
21 -22 0
41 7 0
-49 85 0
26 47 0
10 82 0
34 -41 0
-8 38 0
-61 -23 0
-3 -79 0
-63 -17 0
-11 61 0
-63 59 0
-65 33 0
32 12 0
20 21 0
88 80 0
52 53 0
-67 92 0
-50 41 0
-8 43 0
-42 -90 0
5 -95 0
23 81 0
70 52 0
50 -51 0
92 1 0
64 -37 0
-8 -21 0
41 -33 0
61 -37 0
-19 38 0
99 97 0
32 -29 0
-69 -96 0
41 73 0
-5 -36 0
-10 -14 0
-52 -93 0
-67 -55 0
96 -1 0
-20 59 0
-27 -28 0
-60 62 0
34 54 0
57 39 0
75 -11 0
-27 -42 0
-56 -90 0
-5 -42 0
95 -25 0
11 -18 0
-35 -81 0
-35 -23 0
-39 35 0
71 20 0
-68 -96 0
-67 -98 0
-36 -89 0
-7 -58 0
22 -92 0
89 74 0
-89 -64 0
-57 -25 0
35 86 0
-57 -60 0
79 -64 0
66 84 0
85 92 0
-63 -47 0
59 61 0
19 33 0
-37 -82 0
9 77 0
-4 13 0
100 80 0
47 -99 0
19 -45 0
