p cnf 100 100
90 27 0
-76 -71 0
-41 98 0
29 94 0
-93 -88 0
-68 -35 0
30 88 0
87 98 0
8 -64 0
11 -91 0
15 23 0
-71 75 0
33 9 0
74 52 0
48 -3 0
97 30 0
73 95 0
11 -63 0
-30 21 0
67 -89 0
-6 -40 0
86 1 0
-94 -70 0
24 36 0
-55 -22 0
92 -8 0
-42 -35 0
-11 53 0
33 80 0
75 -58 0
-64 -77 0
71 -79 0
-24 22 0
-97 -39 0
13 -45 0
-10 -34 0
79 -23 0
24 -6 0
34 -77 0
-28 41 0
-52 -98 0
42 -77 0
88 40 0
8 -35 0
80 74 0
-87 -94 0
92 8 0
97 -41 0
-38 -44 0
-98 -67 0
-17 -96 0
94 -9 0
-40 24 0
53 -45 0
-40 50 0
-91 71 0
25 -36 0
-70 87 0
-38 57 0
74 -87 0
-85 -88 0
-12 31 0
24 39 0
-90 27 0
-80 -38 0
10 35 0
-52 -84 0
2 -42 0
-89 -43 0
-36 -51 0
-30 88 0
20 18 0
-24 9 0
-7 -5 0
-14 -48 0
99 29 0
-84 -51 0
79 47 0
48 100 0
-25 -40 0
53 73 0
28 -41 0
69 52 0
-90 89 0
-78 49 0
-37 -7 0
23 -79 0
25 90 0
-56 -36 0
44 -38 0
-73 37 0
-16 4 0
-46 -34 0
15 -39 0
31 79 0
10 -82 0
7 -3 0
-34 -49 0
-35 73 0
63 75 0
