p cnf 16 68
-4 -14 5 0
15 16 5 0
8 -5 -13 0
-14 -8 12 0
-8 -15 -3 0
9 -14 12 0
9 -3 6 0
12 6 16 0
11 7 5 0
6 5 -2 0
14 1 -16 0
-3 -4 -5 0
-5 2 -12 0
-16 13 -4 0
2 10 -3 0
15 -13 -4 0
-9 5 -8 0
9 13 -14 0
3 7 1 0
-10 -12 13 0
-11 -10 9 0
16 8 -1 0
9 16 10 0
8 -14 4 0
-15 2 9 0
-12 16 10 0
14 7 9 0
11 5 -3 0
-13 -8 -7 0
10 -9 6 0
-13 9 -6 0
-2 11 -9 0
-16 8 2 0
-2 -14 -6 0
2 14 13 0
5 -2 1 0
-5 6 -16 0
9 11 16 0
3 -5 8 0
3 -10 14 0
5 -12 -8 0
-12 -16 -4 0
-13 -3 -15 0
-3 15 -5 0
1 4 -7 0
5 -11 9 0
2 -8 -7 0
-15 4 8 0
16 11 2 0
-10 -4 -13 0
-16 -8 1 0
-5 9 16 0
-2 -15 -8 0
-14 12 -5 0
7 -14 16 0
-14 -13 -1 0
7 1 11 0
-2 -14 4 0
-8 -14 -4 0
15 7 -9 0
16 3 -14 0
-13 16 -7 0
-16 -11 2 0
-4 -16 5 0
-8 -6 -12 0
7 8 -6 0
14 -10 1 0
10 5 -1 0
