p cnf 40 170
5 28 -35 0
-36 15 -37 0
34 -4 15 0
18 -31 40 0
37 -28 5 0
-12 20 -8 0
13 9 1 0
-37 -35 36 0
28 -30 23 0
-40 -26 -24 0
-25 27 9 0
-35 8 3 0
30 11 -37 0
29 -13 8 0
-17 36 -31 0
-1 -38 -20 0
-34 40 -37 0
-27 -17 -29 0
24 -4 -7 0
-13 9 -16 0
-24 -35 6 0
-17 39 -38 0
-4 -36 -3 0
23 19 -40 0
14 25 29 0
-7 -17 -25 0
32 16 -25 0
-20 33 8 0
-40 18 -2 0
-40 -29 3 0
27 -8 -28 0
-11 19 -14 0
-18 -36 -24 0
20 -27 -6 0
2 -26 -16 0
-29 -16 30 0
-5 3 -31 0
-21 -39 19 0
26 -13 20 0
-8 -13 29 0
11 -38 15 0
5 -2 -20 0
-40 -7 10 0
-36 -18 14 0
-38 11 -2 0
36 16 -7 0
25 -29 36 0
28 -29 -25 0
26 -3 18 0
-32 15 -28 0
-30 -20 -1 0
23 28 -2 0
-11 -15 -4 0
6 20 -5 0
29 10 5 0
40 -27 -14 0
-19 30 4 0
-28 -5 29 0
-7 -2 10 0
2 -38 23 0
-4 28 -31 0
14 -37 -15 0
39 -9 -27 0
-31 -38 -36 0
-2 -26 -31 0
2 7 -17 0
-37 32 -34 0
-2 28 32 0
20 24 -19 0
-12 30 18 0
-11 -12 -3 0
39 -31 35 0
-20 35 -18 0
-23 -29 -39 0
-3 -24 -35 0
22 14 -11 0
-32 -14 30 0
-13 -27 32 0
-13 34 16 0
18 -11 22 0
-30 -39 9 0
40 13 22 0
-12 -22 -28 0
31 38 37 0
11 35 4 0
39 25 -4 0
-24 -16 -34 0
2 -16 -25 0
25 7 29 0
19 8 -38 0
-21 -26 9 0
-38 -12 -28 0
28 -30 -12 0
13 19 -37 0
-15 8 -17 0
24 -36 -3 0
-22 -23 29 0
-11 27 -22 0
14 -26 -32 0
11 -34 3 0
25 40 12 0
-18 -11 29 0
-33 -13 26 0
39 -11 -31 0
31 39 -4 0
29 -23 14 0
35 -23 1 0
23 40 17 0
35 5 -15 0
6 -12 38 0
-36 22 -8 0
8 25 -13 0
-18 -5 9 0
-14 19 -33 0
-5 -14 22 0
-31 -20 5 0
-31 -12 6 0
-10 15 39 0
30 16 -8 0
28 15 -34 0
-21 -27 -34 0
-36 38 5 0
-4 -1 35 0
-7 -38 -28 0
-35 13 -26 0
39 -4 35 0
-26 19 -40 0
4 -29 18 0
18 -5 2 0
-8 40 15 0
26 39 34 0
-2 -6 36 0
5 38 -15 0
10 37 -28 0
-24 19 -1 0
-37 -24 -9 0
-11 -9 -24 0
-37 -8 35 0
37 27 -36 0
-35 31 37 0
-18 -4 28 0
21 25 -11 0
11 -14 4 0
-7 12 33 0
-24 5 19 0
19 -30 11 0
-1 -12 -38 0
-19 20 16 0
-11 -23 7 0
8 -23 -3 0
-11 -26 27 0
-8 -18 40 0
8 1 14 0
-14 29 -40 0
17 -27 -10 0
4 27 -1 0
3 -38 11 0
-21 -29 -10 0
-37 32 -33 0
-35 -7 40 0
20 34 33 0
9 -27 16 0
4 24 40 0
4 -23 26 0
29 -12 19 0
3 -28 8 0
17 23 -15 0
-21 -18 36 0
-24 -2 -32 0
-20 7 -31 0
