p cnf 20 85
7 -1 -15 0
7 17 13 0
-15 -10 17 0
14 -16 -2 0
2 -6 5 0
-10 -2 15 0
-17 -19 -7 0
-15 2 16 0
16 -15 -2 0
4 16 19 0
-10 -14 -17 0
11 3 -16 0
-10 11 -15 0
-4 19 12 0
15 -10 16 0
15 2 6 0
-5 4 16 0
11 7 1 0
-3 19 11 0
-4 19 -1 0
-14 16 20 0
-6 15 -2 0
14 -6 16 0
-13 7 14 0
-4 18 13 0
9 -1 20 0
-13 -15 -20 0
2 -18 15 0
11 10 -19 0
-15 -8 16 0
20 -15 -10 0
-2 17 -18 0
-17 8 2 0
2 -17 11 0
17 -3 19 0
10 -2 1 0
4 9 -14 0
6 2 -5 0
8 -17 20 0
-17 -5 -15 0
14 16 19 0
-17 -12 10 0
-7 8 -16 0
-13 -4 3 0
18 5 16 0
18 -3 -7 0
-11 -16 -1 0
-4 12 -2 0
13 16 7 0
10 -3 -13 0
9 -1 18 0
10 14 -5 0
13 -3 20 0
-11 7 13 0
-10 -7 4 0
16 -1 10 0
-10 11 -9 0
11 -12 19 0
-5 -14 -8 0
20 12 15 0
-18 1 6 0
-4 16 -7 0
1 15 19 0
13 -18 8 0
-11 10 7 0
16 -18 -7 0
-10 7 5 0
-5 -3 12 0
-5 -18 -19 0
20 7 16 0
-9 -3 18 0
4 -13 -20 0
17 2 13 0
-14 -7 -16 0
14 -2 5 0
17 3 14 0
6 19 -12 0
6 -3 8 0
-6 1 19 0
16 6 -8 0
-7 -14 9 0
-17 7 -18 0
20 11 -15 0
-7 -17 9 0
4 -16 -7 0
