p cnf 20 85
-10 -16 -14 0
14 -10 -16 0
-14 -17 -16 0
-7 -4 -14 0
12 10 -13 0
2 12 -19 0
-18 -8 13 0
10 14 18 0
-11 5 13 0
-14 -12 20 0
4 12 -20 0
3 -4 1 0
-6 -17 -2 0
17 7 16 0
-1 -9 7 0
-19 4 -12 0
11 4 -12 0
-6 10 16 0
5 12 -9 0
8 18 15 0
-17 -1 -3 0
-14 8 15 0
-9 -19 2 0
6 -5 16 0
-12 -1 -7 0
2 -20 4 0
-16 8 -5 0
14 -4 5 0
17 12 -10 0
-17 -20 -18 0
-14 10 3 0
16 -12 -8 0
16 7 12 0
-11 -10 -4 0
18 -14 16 0
15 20 2 0
-13 18 -12 0
-9 -13 -15 0
-6 17 1 0
-17 12 -1 0
-19 -1 -4 0
-11 5 -20 0
8 -14 -19 0
12 8 -10 0
-15 8 -16 0
-5 14 20 0
-1 -2 17 0
-19 2 5 0
-20 -14 -13 0
13 -18 20 0
-9 5 7 0
-12 10 16 0
19 -9 16 0
15 -16 17 0
2 -1 -9 0
-13 19 1 0
8 13 9 0
17 7 -18 0
-15 -17 -11 0
-18 -12 17 0
14 5 -10 0
1 -20 8 0
13 -5 12 0
12 -8 -18 0
16 -1 14 0
1 -19 -14 0
8 -3 12 0
-18 13 9 0
-15 -16 -7 0
-4 2 -7 0
-20 7 10 0
-17 -18 2 0
1 15 -18 0
-2 17 -20 0
5 -11 17 0
-6 15 14 0
-5 3 -16 0
10 9 -15 0
16 -2 14 0
-5 -8 20 0
-18 -19 -14 0
-10 -11 -4 0
-9 -17 20 0
-17 -20 -19 0
-20 12 -8 0
