p cnf 20 85
17 -8 15 0
2 19 -15 0
-15 12 -1 0
-4 19 18 0
-2 10 20 0
17 -12 7 0
-3 1 17 0
-17 -1 -2 0
-2 4 3 0
2 5 12 0
15 -13 14 0
12 -19 3 0
-12 -16 1 0
-7 -13 -8 0
-7 17 4 0
-8 20 -4 0
13 -14 -5 0
-19 4 8 0
-11 -20 -18 0
3 -16 -14 0
-18 20 16 0
16 4 20 0
7 -3 12 0
-9 -19 4 0
1 -11 10 0
-8 -1 -16 0
-8 19 -7 0
1 -8 20 0
18 12 1 0
9 19 -3 0
-10 -11 -2 0
-16 -5 1 0
6 -20 3 0
-2 20 -9 0
1 -20 -7 0
-9 -7 -2 0
16 5 9 0
-3 18 20 0
-19 12 14 0
-16 2 1 0
20 -16 -2 0
-4 7 -17 0
-14 -2 3 0
-14 -3 15 0
-9 -6 -7 0
-1 -19 -12 0
-4 10 18 0
7 2 -3 0
7 -9 -3 0
-19 10 -1 0
-8 14 5 0
4 5 -8 0
11 15 18 0
-11 -15 1 0
6 -20 19 0
17 16 -14 0
-12 11 18 0
4 12 5 0
10 -1 -7 0
11 -10 -8 0
-1 -8 17 0
-9 4 3 0
-19 12 -17 0
15 -13 -2 0
17 5 -10 0
-10 8 -2 0
-4 -1 8 0
-15 -16 9 0
12 20 -7 0
-4 -11 16 0
-17 -15 16 0
-3 -17 16 0
2 -8 5 0
-4 17 8 0
10 6 -20 0
-16 13 -5 0
16 1 -13 0
18 19 2 0
-20 4 -8 0
-11 -9 2 0
3 -9 -5 0
5 1 -8 0
-9 8 13 0
-10 -17 -2 0
15 -8 -14 0
