p cnf 40 170
-6 40 24 0
-18 22 30 0
-36 25 1 0
7 -30 18 0
6 -24 40 0
37 5 -40 0
27 38 -25 0
-19 21 -37 0
33 37 -35 0
-35 -24 10 0
-7 15 10 0
-40 36 -9 0
35 -27 -34 0
22 -18 35 0
-4 18 1 0
-14 -22 7 0
29 -13 -20 0
32 11 -10 0
34 35 -2 0
-18 -30 -12 0
35 5 23 0
-12 29 18 0
35 -25 7 0
-12 -27 19 0
-26 -2 7 0
22 -37 35 0
16 15 -2 0
12 5 34 0
13 -34 33 0
-39 32 24 0
14 -18 -2 0
-31 -40 28 0
-12 -9 25 0
15 11 -23 0
29 -10 3 0
-28 -16 12 0
32 -29 -36 0
20 30 -36 0
8 9 -20 0
-32 40 39 0
32 -24 -13 0
-37 6 33 0
32 16 -1 0
-15 -1 -10 0
-16 27 -37 0
-21 -28 -36 0
20 -31 28 0
-26 23 -8 0
-13 19 -22 0
27 -6 -19 0
-31 25 35 0
-20 7 40 0
-39 -34 -11 0
30 -37 -38 0
-4 1 -5 0
-18 -20 28 0
-36 -30 7 0
-14 -12 -20 0
5 -7 16 0
8 -11 -4 0
-33 -17 -5 0
-6 -18 -15 0
38 -30 -23 0
19 -33 -10 0
8 -3 -34 0
12 18 -22 0
-8 -39 23 0
14 36 -13 0
18 -9 -20 0
11 18 -2 0
-33 -12 -24 0
-5 -13 20 0
16 -15 33 0
18 24 13 0
5 -34 28 0
-17 32 1 0
40 24 -1 0
-25 33 -11 0
-3 2 9 0
-20 17 35 0
-25 -18 12 0
-34 -36 10 0
-12 39 -33 0
15 -37 30 0
4 -13 -24 0
16 29 2 0
-27 35 15 0
-11 34 28 0
39 -3 -21 0
8 -3 13 0
6 -31 32 0
-17 -4 15 0
10 -37 40 0
-29 -24 -31 0
31 24 -19 0
38 -27 20 0
-12 -40 -11 0
16 -26 1 0
10 -5 39 0
-33 29 3 0
25 -17 -11 0
7 11 -38 0
-14 -36 -3 0
11 16 -28 0
13 -40 6 0
-24 -12 -34 0
20 34 21 0
-9 -33 31 0
26 -9 29 0
-29 31 38 0
-18 -19 -35 0
7 3 29 0
-13 6 20 0
-27 -15 36 0
9 3 14 0
-32 -28 -9 0
3 -7 18 0
16 -31 -21 0
8 -32 -10 0
-8 4 40 0
-40 -11 36 0
-29 -38 -33 0
-39 16 -28 0
7 12 -23 0
22 38 -1 0
28 -3 -18 0
33 -9 -25 0
12 17 -30 0
33 10 40 0
-34 -26 12 0
-22 -11 27 0
2 15 8 0
6 -35 26 0
-19 -38 -17 0
29 -27 -6 0
-22 -17 -16 0
-9 -26 10 0
17 -3 36 0
21 -8 30 0
34 -3 -16 0
31 5 30 0
-5 -22 -35 0
29 -28 19 0
32 9 30 0
-29 25 -39 0
-6 33 -2 0
-11 -24 27 0
-9 -40 -24 0
-3 -33 1 0
-31 -22 -9 0
1 -29 -23 0
-14 18 -10 0
10 3 -31 0
28 -38 -25 0
-3 8 -11 0
-33 -17 -20 0
40 -6 24 0
-2 8 39 0
34 40 39 0
-14 8 -28 0
-18 -16 31 0
-33 -4 -34 0
20 -33 30 0
-37 -28 -19 0
22 7 -37 0
-4 20 -36 0
-16 25 26 0
-8 -4 -30 0
-9 38 -2 0
-27 19 21 0
