p cnf 16 68
-14 -13 12 0
-2 -5 8 0
-13 8 -7 0
6 15 -5 0
-4 8 16 0
10 -6 16 0
9 -12 11 0
13 1 -2 0
-1 12 6 0
13 -11 10 0
-11 8 -12 0
-11 -5 8 0
-1 15 3 0
-15 6 -11 0
14 6 -10 0
12 6 -10 0
-7 13 12 0
8 5 -3 0
-12 -14 -2 0
-14 -13 -11 0
-11 -9 -7 0
3 -6 -12 0
12 -10 3 0
11 -13 7 0
16 7 1 0
4 9 -5 0
1 -9 -16 0
14 -2 -12 0
-12 -15 2 0
-13 14 -10 0
6 9 13 0
5 15 -11 0
7 5 11 0
16 5 6 0
5 15 9 0
-12 -7 2 0
-13 11 8 0
-7 -11 8 0
16 -9 2 0
6 3 9 0
14 16 -1 0
-2 -9 -12 0
10 -5 -9 0
5 11 12 0
-7 -9 2 0
-1 -2 -6 0
-3 -1 2 0
-7 -4 -13 0
-1 13 5 0
-6 -9 1 0
7 1 -15 0
13 -5 -11 0
-13 -8 4 0
14 -6 -12 0
5 -7 -2 0
-6 3 -14 0
-7 6 -9 0
2 4 10 0
-11 2 5 0
-12 -4 -14 0
-9 1 -6 0
10 6 3 0
-13 -2 -15 0
-12 -3 -15 0
-7 12 -11 0
10 16 -5 0
15 5 -12 0
11 15 6 0
