p cnf 30 128
-29 16 -17 0
-22 -2 -26 0
-30 19 28 0
21 12 -15 0
-27 7 13 0
20 17 -24 0
-29 -23 4 0
1 5 14 0
23 -9 -25 0
-8 21 -13 0
-8 -26 22 0
-1 -26 -24 0
-2 11 -25 0
-24 -28 21 0
19 23 -18 0
8 7 -16 0
-30 -4 18 0
16 -2 -27 0
21 -7 19 0
-27 2 -7 0
-18 -10 24 0
-16 -10 19 0
-13 9 -4 0
19 -16 7 0
-30 -1 17 0
15 9 21 0
10 14 25 0
18 -14 26 0
9 22 3 0
18 26 -23 0
2 6 8 0
-4 19 30 0
10 -6 17 0
-21 -15 19 0
26 14 -19 0
-20 -12 -10 0
-22 -14 -30 0
21 -27 16 0
11 -30 -25 0
-8 17 6 0
11 -24 -19 0
-6 -26 13 0
8 -6 -10 0
-30 16 28 0
-14 20 -5 0
-25 22 5 0
1 -13 -2 0
15 -12 -5 0
-19 -15 24 0
29 10 -20 0
16 -29 -10 0
30 -10 14 0
6 4 1 0
10 22 24 0
10 27 -24 0
-19 -4 -13 0
-25 -29 -19 0
-25 12 -26 0
-20 10 -6 0
19 21 3 0
25 21 -26 0
-11 18 5 0
-24 15 -8 0
-23 -3 -7 0
8 -4 18 0
-14 2 -4 0
-26 16 -20 0
-15 7 23 0
7 29 26 0
7 11 16 0
-4 -15 -22 0
27 -12 18 0
-10 26 5 0
-17 15 13 0
28 12 14 0
-22 13 -6 0
-25 -19 26 0
-25 -30 20 0
1 -2 -19 0
14 -21 18 0
20 17 7 0
5 2 28 0
22 -4 28 0
-30 18 19 0
-25 2 -17 0
5 18 -23 0
4 17 -11 0
-5 -20 -18 0
16 20 6 0
-26 -6 29 0
29 -18 -21 0
5 -8 -16 0
-15 -5 -21 0
13 -14 -17 0
-16 11 -23 0
25 -18 7 0
-22 -15 1 0
-3 4 -15 0
-19 28 22 0
-5 -22 -15 0
-10 27 -1 0
12 28 21 0
9 14 8 0
16 -9 13 0
28 -24 15 0
28 -8 -7 0
-19 4 -12 0
27 10 21 0
27 -2 -16 0
22 -17 -3 0
-24 12 4 0
-7 -23 15 0
-17 -3 29 0
30 27 -18 0
-24 -3 -4 0
-11 -19 21 0
-17 -8 23 0
-17 30 -26 0
13 -9 29 0
-29 1 9 0
-11 10 -27 0
-23 2 4 0
-26 3 16 0
3 19 20 0
-27 18 -24 0
-24 15 -22 0
-16 1 9 0
-28 25 21 0
