p cnf 20 85
-12 -6 11 0
5 -7 11 0
-9 -15 5 0
-1 11 2 0
17 19 11 0
1 5 9 0
-4 12 -13 0
13 19 -5 0
18 11 3 0
17 -6 -18 0
-13 4 -15 0
-3 -2 4 0
1 14 -11 0
-8 -12 -6 0
8 -10 11 0
6 13 8 0
10 17 -9 0
8 9 13 0
3 10 4 0
16 4 15 0
12 1 10 0
-8 -18 -20 0
16 -3 19 0
5 -15 14 0
-12 1 -20 0
17 9 -14 0
13 -15 -2 0
-1 -8 17 0
-6 4 -12 0
-20 12 -17 0
-6 16 -12 0
-18 -15 14 0
-8 -2 -10 0
-6 3 -12 0
2 5 3 0
-17 -12 -14 0
2 -4 11 0
-16 1 -20 0
-17 -11 -18 0
-9 4 3 0
-5 2 -17 0
-7 20 2 0
-13 3 -14 0
-7 10 1 0
-16 -14 -8 0
9 3 20 0
-11 -18 -1 0
-18 10 16 0
-12 -1 19 0
-1 -2 -11 0
2 20 -10 0
10 -15 3 0
-14 -17 7 0
-8 19 15 0
4 8 -7 0
6 -8 12 0
4 10 -17 0
13 -8 18 0
15 -8 5 0
-10 14 13 0
13 12 -18 0
-1 -13 4 0
19 16 -9 0
17 -2 -11 0
-15 -12 -5 0
-12 14 -11 0
-10 19 12 0
-19 13 12 0
1 -5 -17 0
6 -4 -5 0
17 13 -10 0
19 18 -14 0
11 15 8 0
15 -5 -18 0
-8 15 -12 0
18 -17 -11 0
12 20 18 0
7 11 16 0
19 2 -18 0
10 9 14 0
8 14 16 0
-3 6 -14 0
-12 4 -20 0
16 5 18 0
5 11 18 0
