p cnf 40 170
2 15 19 0
-36 38 -6 0
-27 32 19 0
-20 39 -32 0
21 -18 13 0
-1 -37 -28 0
-13 1 32 0
36 -13 -17 0
-29 -9 31 0
-30 38 -20 0
-5 18 7 0
-33 -30 34 0
5 -33 -12 0
12 18 -24 0
-15 2 -36 0
-10 -12 -1 0
35 32 21 0
-39 -18 -26 0
32 -39 -16 0
-38 -37 40 0
-28 3 6 0
14 7 6 0
14 -26 -16 0
-38 -14 3 0
-36 -13 6 0
-11 19 -7 0
13 2 10 0
-10 -9 -31 0
12 24 -31 0
-31 27 26 0
25 6 16 0
3 8 -21 0
-13 -37 -10 0
40 13 -15 0
38 26 18 0
-4 -26 37 0
-16 -2 39 0
-40 29 -18 0
17 -7 -2 0
-34 -30 -29 0
-19 8 31 0
12 30 -14 0
-35 37 4 0
-10 -37 38 0
-17 8 28 0
25 29 -5 0
4 5 17 0
39 9 -25 0
20 18 -17 0
-6 -28 -19 0
-19 37 20 0
33 -39 -22 0
-37 15 -7 0
-38 -28 9 0
-15 12 3 0
-39 -17 9 0
18 -35 37 0
39 -25 38 0
-25 8 -1 0
26 14 -24 0
-35 40 12 0
28 -25 40 0
-35 -17 12 0
37 12 8 0
10 28 -6 0
-6 38 21 0
-11 -6 -5 0
-5 -32 14 0
-8 38 25 0
40 14 34 0
-9 -37 -40 0
29 -2 40 0
24 4 -17 0
-36 -2 -19 0
-3 26 6 0
13 -32 26 0
19 28 -17 0
3 6 35 0
-33 -36 -40 0
-11 22 -35 0
-5 35 -11 0
-4 -12 28 0
-18 -19 17 0
11 -20 28 0
-39 8 -23 0
31 -39 21 0
31 -10 -11 0
27 -38 7 0
-31 -29 11 0
39 -6 40 0
-10 8 -29 0
-37 16 23 0
28 38 34 0
-5 38 37 0
-33 -29 16 0
-6 40 -2 0
-23 -8 30 0
3 14 27 0
-34 -39 -33 0
-32 -28 26 0
22 27 -39 0
-2 -30 36 0
-18 16 -36 0
11 -12 37 0
-31 4 5 0
-25 2 13 0
-19 34 9 0
30 17 4 0
15 -32 5 0
-28 -20 -34 0
-22 31 -10 0
-13 9 -1 0
13 -19 2 0
8 -2 39 0
10 -33 18 0
-7 -6 -12 0
39 15 20 0
34 22 -29 0
1 24 -18 0
25 -27 16 0
31 29 12 0
10 -39 -6 0
36 1 4 0
-36 -5 -23 0
-36 -37 -22 0
13 37 -26 0
-16 -6 -31 0
30 -24 9 0
-14 -24 -6 0
40 21 -38 0
-16 -22 1 0
33 -27 -11 0
38 -27 -32 0
33 -6 -18 0
-16 26 -31 0
-14 -23 36 0
10 38 -8 0
40 -7 -13 0
-34 9 -12 0
-19 -11 -37 0
29 27 -11 0
15 -24 37 0
38 -19 -4 0
32 2 18 0
-26 28 8 0
20 -18 -23 0
31 -28 35 0
5 28 -19 0
-22 34 -9 0
18 39 -6 0
-2 18 -20 0
32 -15 16 0
-33 26 8 0
-14 19 37 0
-29 31 27 0
-9 39 36 0
7 32 -22 0
-6 -40 7 0
9 -15 27 0
-15 -21 4 0
-6 1 -18 0
39 -16 -21 0
-14 -4 -17 0
4 30 36 0
-28 -6 25 0
-26 -3 30 0
1 -13 -10 0
-2 19 -23 0
-40 22 -29 0
26 -38 36 0
