p cnf 16 68
-1 14 -12 0
-1 -3 -12 0
16 -9 1 0
6 -2 -15 0
6 4 11 0
6 14 -2 0
-4 9 8 0
-10 3 6 0
-15 -14 -6 0
-5 11 -3 0
2 10 -6 0
-12 -15 8 0
-14 8 -5 0
-14 -12 6 0
-16 -14 11 0
6 10 3 0
-14 11 12 0
11 14 3 0
11 6 12 0
-16 15 14 0
-1 5 -2 0
14 10 13 0
2 -13 12 0
-8 3 -11 0
3 16 -7 0
7 14 -8 0
11 -1 -6 0
-14 -16 -8 0
-4 -2 10 0
-14 5 -9 0
-3 10 -7 0
-10 -8 -4 0
-3 10 2 0
13 8 -9 0
1 8 16 0
-12 4 2 0
16 1 -6 0
14 11 -12 0
15 -4 -14 0
8 -5 -1 0
-11 2 -8 0
2 -11 4 0
-16 2 -6 0
3 2 -11 0
11 -12 -13 0
9 -16 -7 0
14 -10 2 0
-8 5 -6 0
-11 -9 -5 0
12 4 16 0
-11 1 -7 0
7 -5 -6 0
11 -3 -15 0
-14 5 8 0
-10 7 -2 0
1 -10 -3 0
14 -9 13 0
-4 16 -12 0
-16 11 -15 0
-12 -9 -6 0
-4 1 -11 0
13 10 -1 0
-14 13 -7 0
15 7 13 0
15 12 -7 0
-6 8 15 0
3 -12 -11 0
16 -2 12 0
