p cnf 12 51
-8 -2 -5 0
-4 -9 -11 0
2 -1 4 0
7 6 4 0
3 -12 -8 0
2 3 5 0
-6 4 -1 0
-4 11 12 0
7 -8 -3 0
-6 -11 -2 0
5 12 8 0
1 -3 2 0
4 -8 5 0
-2 -8 10 0
4 -10 -5 0
2 7 3 0
-6 -2 8 0
-6 8 4 0
-9 12 -8 0
5 7 -2 0
-10 2 -7 0
-7 2 -8 0
-1 8 -3 0
2 -3 -5 0
-1 -5 -11 0
4 -11 10 0
-11 -2 3 0
10 -5 -8 0
-11 -12 2 0
4 -11 -9 0
4 -5 -8 0
7 5 -2 0
3 -5 -9 0
10 3 -8 0
4 10 12 0
-11 8 -3 0
7 -9 -1 0
-4 9 -3 0
3 7 -1 0
-2 7 -1 0
-8 -3 5 0
-11 -6 -4 0
9 -4 6 0
-5 -1 4 0
-12 -4 11 0
-12 -2 11 0
-2 -11 8 0
-8 -11 -2 0
-9 -5 2 0
-8 -1 -2 0
-5 10 -3 0
