p cnf 40 170
25 -26 -8 0
13 -39 23 0
-24 -15 -8 0
-35 -32 38 0
-8 27 -36 0
32 25 -24 0
-39 10 -37 0
-17 -5 33 0
-5 39 -1 0
34 12 15 0
-1 -3 -38 0
35 15 -33 0
1 3 -10 0
-25 -4 -16 0
-20 -28 -3 0
-38 13 -28 0
12 4 13 0
19 -16 23 0
12 1 -4 0
-21 30 -32 0
8 -33 35 0
-28 34 -7 0
-26 -4 1 0
-16 30 -7 0
19 18 -38 0
-10 27 -21 0
31 9 23 0
24 -3 -21 0
-13 -37 -31 0
-21 31 -34 0
26 -14 -16 0
35 21 20 0
-28 -21 -3 0
-11 -39 -15 0
12 23 -27 0
-2 6 -10 0
2 13 22 0
-13 -34 31 0
33 -7 8 0
4 -39 -36 0
11 15 -29 0
14 27 22 0
-28 -5 -2 0
20 27 -32 0
-21 10 27 0
20 -9 40 0
33 7 2 0
2 -33 22 0
-3 -28 -31 0
-19 -13 -32 0
1 25 18 0
-11 -3 -5 0
-15 -21 9 0
4 -19 -28 0
38 30 -1 0
10 -30 -31 0
29 23 -16 0
29 2 36 0
6 26 -35 0
9 38 -24 0
24 -17 -8 0
-33 28 23 0
16 -14 3 0
36 14 -7 0
8 -38 -12 0
9 17 2 0
-39 3 -40 0
-1 -25 -29 0
28 -19 30 0
25 22 29 0
3 15 33 0
-25 -10 -5 0
23 -3 24 0
19 8 -40 0
-21 2 22 0
19 -34 -35 0
4 1 -24 0
-12 -10 -2 0
24 10 37 0
33 12 -10 0
27 6 -19 0
-35 -25 13 0
39 20 -3 0
-8 -27 -24 0
14 -26 -10 0
-22 -9 -31 0
-24 -25 9 0
-8 -20 -39 0
20 36 -10 0
-4 7 -1 0
-2 -39 28 0
-17 8 4 0
-10 -2 -3 0
15 -5 -9 0
-18 -26 8 0
26 31 16 0
39 -34 18 0
-40 -1 27 0
29 -24 10 0
2 19 38 0
39 -27 -1 0
-17 -31 -25 0
-11 -18 38 0
34 -30 -35 0
-36 -34 -30 0
36 16 -15 0
-37 -33 6 0
37 -14 -6 0
38 -8 4 0
35 -10 33 0
-8 -10 5 0
-40 -20 -6 0
-19 31 -38 0
19 35 24 0
-9 27 4 0
-18 -12 6 0
39 34 27 0
27 18 4 0
4 32 1 0
15 -8 13 0
-29 1 17 0
-22 -36 -4 0
-15 -17 30 0
1 -40 -18 0
-38 -19 -40 0
24 -34 6 0
30 -9 14 0
-1 34 16 0
34 22 32 0
21 -16 10 0
-9 -37 20 0
1 22 17 0
-20 -27 -40 0
-20 4 -12 0
-9 21 -6 0
18 33 -36 0
7 14 37 0
-12 -29 21 0
-11 -1 16 0
19 -11 -5 0
-21 -4 1 0
22 20 27 0
5 9 26 0
-38 -27 16 0
-2 27 13 0
-32 -22 -23 0
-38 -17 -22 0
-20 -7 40 0
8 -29 27 0
29 27 38 0
30 -2 37 0
3 -16 -21 0
-27 -38 8 0
-35 -29 33 0
33 1 35 0
-7 38 -3 0
32 19 -39 0
6 -36 20 0
-30 -31 10 0
19 30 -14 0
-8 -5 -26 0
-19 -26 -11 0
-32 -6 -7 0
-35 -17 -31 0
18 -13 11 0
6 -5 -3 0
24 27 -13 0
31 -28 18 0
-39 19 -23 0
34 -2 -12 0
