p cnf 30 128
-14 -26 10 0
-28 5 -21 0
-13 -3 -7 0
6 15 -3 0
-27 -29 -17 0
24 -3 -6 0
26 27 14 0
-1 -12 24 0
8 -17 22 0
-2 -12 -3 0
-6 -24 26 0
26 -19 -28 0
17 -1 15 0
-5 -9 -15 0
-17 -21 6 0
18 24 19 0
-16 5 29 0
-7 -2 10 0
-14 11 -8 0
30 -18 11 0
-15 27 -24 0
22 2 24 0
-30 -9 -1 0
-26 -28 -27 0
22 3 30 0
19 6 -16 0
13 6 30 0
8 -7 27 0
-9 12 -19 0
-8 -20 2 0
-20 -9 -17 0
20 -11 -24 0
-3 -23 -10 0
22 7 17 0
29 -6 8 0
-13 18 -5 0
-3 25 15 0
5 -29 -12 0
-17 -26 12 0
-4 6 29 0
11 -26 4 0
11 17 13 0
-12 27 9 0
11 12 -16 0
-5 -13 -3 0
12 -3 27 0
8 -9 11 0
-18 5 12 0
-16 20 28 0
27 -11 10 0
-8 -9 -3 0
-24 -8 27 0
-11 -5 -12 0
-3 -9 -16 0
21 -23 14 0
8 25 30 0
8 -27 -6 0
23 -28 -21 0
-2 -11 30 0
21 2 -10 0
-20 10 -2 0
9 -11 6 0
25 23 -13 0
1 -3 -25 0
-9 6 12 0
-13 18 6 0
-28 -6 -10 0
-16 -17 5 0
6 -8 -23 0
-13 21 26 0
-13 24 -16 0
-25 -23 28 0
-14 28 -5 0
23 12 9 0
-16 6 14 0
-28 -6 -14 0
16 -13 -1 0
26 9 12 0
-29 -24 15 0
-18 8 -21 0
-11 5 -20 0
-12 21 26 0
-20 -21 10 0
27 13 -20 0
-3 -21 8 0
-3 -19 -22 0
-27 30 -17 0
24 20 -21 0
17 -28 -4 0
12 -28 7 0
-14 -25 -18 0
-4 -23 -3 0
12 2 4 0
-21 28 5 0
-9 -5 -19 0
14 25 -6 0
17 21 -26 0
-15 -11 -14 0
-12 24 10 0
-30 -18 17 0
4 -19 9 0
-18 -23 -28 0
-14 -23 -24 0
26 -15 -20 0
-20 3 -24 0
-25 18 -27 0
-6 16 9 0
-1 -7 15 0
14 -4 -10 0
9 19 -21 0
-6 -27 12 0
-27 3 15 0
-3 12 -1 0
-25 17 29 0
-15 -16 11 0
14 -19 -16 0
10 14 -2 0
-16 -1 24 0
-21 -4 -27 0
-20 -13 -23 0
3 22 -7 0
-6 9 -18 0
-20 4 29 0
8 9 -13 0
-19 -7 23 0
11 -12 -9 0
25 24 18 0
1 19 -4 0
