p cnf 30 128
11 9 -29 0
-16 -7 -5 0
-7 9 19 0
27 -21 -28 0
-6 -7 -22 0
9 -27 -15 0
-9 13 -11 0
-27 -7 2 0
7 -30 -3 0
-1 -3 4 0
30 11 29 0
15 13 -14 0
23 18 -24 0
27 -26 21 0
4 -20 -2 0
5 6 -20 0
25 -5 -3 0
-29 18 8 0
3 -4 -2 0
-21 -7 8 0
-9 -8 -15 0
25 -17 -2 0
14 12 -1 0
21 27 23 0
20 19 -12 0
-27 16 -7 0
12 23 16 0
10 -1 -20 0
12 1 6 0
-22 30 -5 0
-26 1 21 0
-23 -18 24 0
-29 20 1 0
-4 24 18 0
10 20 5 0
-12 16 17 0
-15 -4 22 0
-26 -10 24 0
-25 6 30 0
-8 -20 -29 0
17 -25 -11 0
-9 -24 16 0
-6 23 -30 0
9 -15 23 0
28 18 -29 0
-19 22 18 0
7 -9 29 0
-18 5 -25 0
-30 -20 7 0
-18 27 -1 0
8 27 9 0
-22 10 -13 0
3 2 -21 0
26 16 -13 0
-28 -6 18 0
-1 -9 10 0
15 -4 -26 0
23 -27 -22 0
26 -19 -23 0
6 -30 -5 0
2 7 -26 0
-24 -14 -4 0
23 -21 -8 0
23 -21 -9 0
-20 -9 -19 0
-26 -7 -22 0
20 -16 21 0
-5 -18 -2 0
-22 -9 -8 0
-18 -1 13 0
26 7 -25 0
-5 -25 -23 0
15 -20 28 0
-26 -12 -25 0
4 -28 30 0
-3 14 -29 0
-4 -8 -19 0
9 -8 -10 0
17 5 16 0
-2 -5 8 0
-29 8 23 0
7 -8 -29 0
-12 5 18 0
29 21 27 0
27 -23 -17 0
-15 -27 -17 0
-26 7 14 0
24 -5 -8 0
10 9 -16 0
30 -19 -7 0
24 28 -30 0
3 -7 -9 0
22 -24 5 0
15 -5 26 0
-7 -11 25 0
19 -2 8 0
-26 13 8 0
30 21 3 0
27 3 -14 0
21 -12 -4 0
-5 15 -17 0
-18 -13 -27 0
-16 -11 20 0
-25 -10 24 0
-21 -1 27 0
-9 20 5 0
-21 17 8 0
14 -15 23 0
4 24 -7 0
14 20 -8 0
13 27 17 0
29 -15 9 0
-11 -23 -7 0
15 19 -6 0
-8 -29 -16 0
25 16 -15 0
1 16 -11 0
-27 25 21 0
-23 -11 -15 0
3 19 -8 0
1 5 -4 0
-26 -13 3 0
15 -2 -29 0
-10 -18 -20 0
4 15 -5 0
-22 -21 5 0
6 -16 2 0
6 2 23 0
