p cnf 12 51
-3 4 -10 0
-9 -6 1 0
10 2 1 0
-11 -9 -3 0
-5 2 -9 0
-9 -1 -2 0
3 -6 -1 0
6 -10 -9 0
-9 -8 -12 0
9 12 -3 0
-1 6 -10 0
10 -6 12 0
-3 -5 -10 0
9 6 10 0
3 2 -7 0
-6 -10 7 0
1 -12 -7 0
1 10 -11 0
12 -6 5 0
7 5 11 0
-5 3 6 0
-7 -12 -5 0
12 1 2 0
-7 9 -3 0
-6 9 -4 0
7 -8 -10 0
12 -10 -2 0
10 -1 -6 0
12 -6 -1 0
-8 5 -10 0
1 6 -7 0
2 8 -9 0
1 9 -3 0
-12 1 9 0
-9 -4 -10 0
2 8 -1 0
4 -12 2 0
11 -2 1 0
7 -3 -5 0
-11 4 -8 0
1 -9 7 0
-1 -10 9 0
10 12 5 0
3 7 -8 0
12 10 8 0
6 -3 8 0
-11 -9 -3 0
-7 -9 5 0
-6 -2 4 0
10 -2 12 0
-6 8 -5 0
