p cnf 12 51
2 -5 4 0
9 11 -1 0
5 6 -12 0
-10 2 12 0
2 9 4 0
6 12 -2 0
-11 -4 -6 0
-12 -5 -3 0
11 -1 9 0
-10 2 1 0
-11 10 8 0
-3 -8 9 0
-2 3 -9 0
1 6 12 0
10 -1 9 0
10 9 4 0
3 -7 12 0
6 4 -2 0
10 -4 12 0
-2 10 11 0
6 5 7 0
-3 5 11 0
8 9 10 0
11 3 8 0
8 -9 -1 0
-12 -9 -3 0
-9 -1 8 0
-5 -4 -7 0
-1 6 7 0
-3 -10 7 0
8 12 -9 0
3 -12 2 0
-6 -11 3 0
3 8 -7 0
11 -3 12 0
-8 -7 -3 0
2 3 -12 0
-3 -1 -6 0
-2 -4 -8 0
3 12 7 0
8 12 1 0
7 -10 -2 0
12 -2 10 0
-4 3 -6 0
-2 9 -5 0
-6 -2 -1 0
3 -1 -2 0
-6 2 -3 0
-2 -11 9 0
11 10 -9 0
7 -2 1 0
