p cnf 16 68
14 -5 -6 0
-13 9 -10 0
-5 -14 -11 0
-9 15 6 0
16 14 15 0
2 -14 -10 0
-7 13 8 0
5 15 -3 0
-13 -9 16 0
15 10 -7 0
1 14 15 0
12 -14 -6 0
-12 -2 13 0
16 3 -7 0
-10 11 -3 0
4 -15 -14 0
8 16 1 0
-8 -1 -10 0
10 -11 7 0
6 -10 -7 0
4 -7 -6 0
-8 -7 2 0
-8 10 -9 0
-4 -12 11 0
-9 3 -13 0
-5 -9 11 0
-5 -12 2 0
-9 4 -11 0
-1 12 7 0
-1 5 7 0
1 -9 5 0
-11 -12 6 0
12 -7 14 0
1 -15 -12 0
15 -8 4 0
4 12 7 0
1 -15 11 0
-2 -12 -14 0
6 -13 -5 0
13 14 -2 0
15 -14 -11 0
7 -15 16 0
3 4 -13 0
-4 -10 5 0
4 11 -13 0
-11 -14 9 0
5 2 -3 0
-4 -9 10 0
16 -13 3 0
-11 8 16 0
16 1 10 0
6 -5 2 0
-12 13 -2 0
3 -2 13 0
-5 -1 4 0
5 -4 -8 0
-3 -7 11 0
16 -7 5 0
-5 14 8 0
-16 -1 4 0
-11 15 5 0
4 -13 10 0
12 1 11 0
-1 14 2 0
-6 15 12 0
-15 -16 -2 0
11 10 -12 0
-16 -6 -12 0
