p cnf 30 128
28 -13 -18 0
30 -9 7 0
9 24 21 0
-12 2 26 0
-2 -27 -15 0
-5 22 -15 0
29 -12 5 0
-19 -7 -10 0
-21 -30 8 0
5 23 -18 0
-17 -23 -5 0
5 22 16 0
5 -18 -19 0
-17 13 9 0
18 24 -4 0
14 -18 7 0
6 12 -3 0
15 13 -17 0
21 -28 1 0
17 2 30 0
-7 29 -28 0
6 29 -5 0
-8 24 30 0
-11 19 6 0
-5 -23 22 0
-30 20 -23 0
17 25 -19 0
-28 26 -11 0
10 -1 16 0
-20 -11 9 0
13 -16 -23 0
-5 -11 -1 0
-1 -6 22 0
1 -30 -23 0
15 4 12 0
10 27 13 0
-29 17 -12 0
29 -26 -27 0
-10 -22 7 0
-22 9 23 0
-24 -8 -7 0
2 17 -22 0
-23 -15 26 0
-5 15 7 0
-20 30 -2 0
22 -29 -10 0
22 8 11 0
-3 -17 19 0
-30 21 -17 0
-30 -21 2 0
-12 -17 -21 0
4 23 -25 0
-5 -30 24 0
-19 24 -8 0
16 -18 27 0
-23 -29 24 0
26 7 9 0
23 25 26 0
-26 19 11 0
28 27 -12 0
17 -26 27 0
3 -30 7 0
-29 -20 15 0
-2 12 6 0
23 -3 28 0
22 1 -20 0
-22 1 10 0
-30 14 -29 0
10 18 -7 0
1 -27 -30 0
19 25 -12 0
-17 -1 10 0
22 26 -7 0
-24 -8 -7 0
-17 7 -24 0
27 9 -18 0
-20 3 -16 0
-7 23 9 0
-26 -21 18 0
-12 2 -15 0
-12 26 -2 0
-12 -2 -1 0
22 14 -3 0
-18 2 1 0
18 -8 -17 0
-11 21 -1 0
-22 -8 -16 0
-16 -27 21 0
-17 -19 30 0
-4 -7 -23 0
12 13 26 0
28 -2 3 0
-24 28 -16 0
-23 -14 7 0
-1 -4 -3 0
-5 -21 -28 0
11 -12 -10 0
28 -4 -26 0
2 19 -13 0
8 23 28 0
-2 -25 -27 0
6 17 -12 0
-26 -18 22 0
11 6 -21 0
18 24 -27 0
-30 -26 14 0
27 25 18 0
8 -7 28 0
15 -6 9 0
-8 14 -22 0
8 22 -11 0
29 -18 -16 0
-20 -17 -15 0
22 -30 7 0
5 2 -20 0
-3 1 -14 0
-6 -10 -30 0
2 8 -14 0
-11 20 -7 0
6 -19 -25 0
-21 -28 -15 0
22 19 12 0
-10 22 -11 0
18 3 -11 0
9 -7 5 0
25 -1 27 0
-25 6 8 0
-10 -12 25 0
