p cnf 12 51
12 6 4 0
-4 12 -3 0
9 -7 8 0
-3 5 -1 0
8 -6 4 0
8 4 11 0
-6 5 7 0
7 5 12 0
11 9 8 0
-5 -12 -3 0
9 8 11 0
5 12 -10 0
-1 -8 5 0
10 -11 12 0
5 -11 -10 0
-1 -11 -3 0
1 -4 3 0
7 -8 -9 0
10 5 -6 0
3 -6 -9 0
3 7 10 0
-8 -4 -1 0
11 -7 12 0
-6 -11 -7 0
10 12 -9 0
-8 -10 -5 0
8 -2 7 0
4 -10 3 0
6 2 -11 0
11 -2 -6 0
5 -1 3 0
10 -5 -6 0
2 -5 -4 0
4 12 -5 0
-12 11 8 0
1 9 -11 0
11 12 -9 0
3 11 8 0
-4 1 -10 0
-6 -9 -12 0
-8 -9 12 0
-11 -8 12 0
-4 -11 5 0
12 4 -5 0
-8 -4 -7 0
3 2 6 0
-4 -7 -2 0
5 1 11 0
-3 -1 -7 0
12 7 5 0
-6 10 4 0
